n = 7;
G = -1;

num_pistas_filas = 12;
num_pistas_columnas = 12;

pistas_filas = array2d(1..n, 1..n, [
    1, 1, G, G, 2, 2, 2,
    3, 3, G, 4, 4, 4, 4,
    5, 5, 5, 5, 5, G, G,
    G, 6, 6, G, 7, 7, G,
    G, G, 8, 8, 8, 8, 8,
    9, 9, 9, 9, G, 10, 10,
    11, 11, 11, G, G, 12, 12
]);

pistas_columnas = array2d(1..n, 1..n, [
    13, 15, G, G, 20, 21, 23,
    13, 15, G, 18, 20, 21, 23,
    13, 15, 17, 18, 20, G, G,
    G, 15, 17, G, 20, 22, G,
    G, G, 17, 19, 20, 22, 24,
    14, 16, 17, 19, G, 22, 24,
    14, 16, 17, G, G, 22, 24
]);

sumas_pistas_filas = [16, 24, 17, 29, 35, 7, 8, 16, 21, 5, 6, 3];
sumas_pistas_columnas = [23, 11, 30, 10, 15, 17, 7, 27, 12, 12, 16, 7];